
Gurobi 12.0.0 (mac64[arm]) logging started Tue Dec  9 22:52:12 2025

Set parameter LogFile to value "/Users/lennardhansmann/Desktop/Newspaperlayout/newspaperlayout/Instances/Diss/Large/L30P180(A)/sol/L30P180A13(A).log"
Set parameter Threads to value 1
Gurobi Optimizer version 12.0.0 build v12.0.0rc1 (mac64[arm] - Darwin 24.6.0 24G90)

CPU model: Apple M3 Pro
Thread count: 11 physical cores, 11 logical processors, using up to 1 threads

Non-default parameters:
TimeLimit  3600
Threads  1

Optimize a model with 32814 rows, 89812 columns and 1148272 nonzeros
Model fingerprint: 0x607b18be
Variable types: 8406 continuous, 81406 integer (81406 binary)
Coefficient statistics:
  Matrix range     [6e-04, 1e+04]
  Objective range  [1e+00, 1e+00]
  Bounds range     [1e+00, 1e+04]
  RHS range        [9e-01, 1e+04]
Presolve removed 2897 rows and 25622 columns (presolve time = 5s)...
Presolve removed 4233 rows and 45380 columns (presolve time = 10s)...
Presolve removed 4134 rows and 45277 columns
Presolve time: 10.12s
Presolved: 28680 rows, 44535 columns, 493615 nonzeros
Variable types: 3382 continuous, 41153 integer (37917 binary)
Found heuristic solution: objective -14.8554191
Found heuristic solution: objective -14.7473750

Root simplex log...

Iteration    Objective       Primal Inf.    Dual Inf.      Time
       0    1.3454789e+02   2.172831e+02   0.000000e+00     10s
   38761    1.3330283e+01   0.000000e+00   0.000000e+00     14s
   38761    1.3330283e+01   0.000000e+00   0.000000e+00     14s

Root relaxation: objective 1.333028e+01, 38761 iterations, 3.31 seconds (7.14 work units)

    Nodes    |    Current Node    |     Objective Bounds      |     Work
 Expl Unexpl |  Obj  Depth IntInf | Incumbent    BestBd   Gap | It/Node Time

     0     0   13.33028    0  761  -14.74738   13.33028   190%     -   14s
     0     0   13.28558    0  883  -14.74738   13.28558   190%     -   14s
     0     0   13.27577    0  892  -14.74738   13.27577   190%     -   14s
     0     0   13.26807    0  946  -14.74738   13.26807   190%     -   15s
     0     0   13.26471    0  893  -14.74738   13.26471   190%     -   15s
     0     0   13.25725    0 1003  -14.74738   13.25725   190%     -   15s
     0     0   13.25032    0  933  -14.74738   13.25032   190%     -   15s
     0     0   13.24543    0  927  -14.74738   13.24543   190%     -   15s
     0     0   13.24452    0  843  -14.74738   13.24452   190%     -   16s
     0     0   13.24156    0 1036  -14.74738   13.24156   190%     -   16s
     0     0   13.23918    0  889  -14.74738   13.23918   190%     -   16s
H    0     0                       0.8387460   13.23918  1478%     -   16s
H    0     0                       3.1135304   13.23918   325%     -   16s
     0     0   12.93647    0 1063    3.11353   12.93647   315%     -   19s
     0     0   12.92596    0 1110    3.11353   12.92596   315%     -   20s
     0     0   12.92498    0  990    3.11353   12.92498   315%     -   20s
     0     0   12.92459    0 1044    3.11353   12.92459   315%     -   20s
     0     0   12.92458    0 1001    3.11353   12.92458   315%     -   20s
H    0     0                       3.6137173   12.92452   258%     -   20s
H    0     0                       4.0256214   12.92452   221%     -   20s
H    0     0                       4.2157317   12.92452   207%     -   20s
     0     0   12.89397    0 1218    4.21573   12.89397   206%     -   21s
     0     0   12.89383    0  997    4.21573   12.89383   206%     -   21s
     0     0   12.50856    0 1361    4.21573   12.50856   197%     -   26s
     0     0   12.48607    0 1332    4.21573   12.48607   196%     -   27s
     0     0   12.48578    0 1372    4.21573   12.48578   196%     -   28s
H    0     0                       4.5604879   12.48528   174%     -   28s
H    0     0                       4.9774847   12.48528   151%     -   28s
H    0     0                       5.2584032   12.48528   137%     -   28s
H    0     0                       5.4497380   12.48528   129%     -   28s
H    0     0                       5.4980099   12.48528   127%     -   28s
H    0     0                       5.5760730   12.48528   124%     -   28s
H    0     0                       5.6143987   12.48528   122%     -   28s
H    0     0                       5.6224002   12.48528   122%     -   28s
H    0     0                       5.6660147   12.48528   120%     -   28s
     0     0   12.46955    0 1351    5.66601   12.46955   120%     -   29s
     0     0   12.46603    0 1332    5.66601   12.46603   120%     -   30s
     0     0   12.46523    0 1278    5.66601   12.46523   120%     -   30s
     0     0   11.99081    0 1413    5.66601   11.99081   112%     -   37s
     0     0   11.98198    0 1414    5.66601   11.98198   111%     -   39s
     0     0   11.98153    0 1438    5.66601   11.98153   111%     -   39s
H    0     0                       5.8735738   11.98018   104%     -   39s
     0     0   11.96660    0 1262    5.87357   11.96660   104%     -   40s
     0     0   11.96652    0 1166    5.87357   11.96652   104%     -   40s
     0     0   11.96590    0 1231    5.87357   11.96590   104%     -   40s
     0     0   11.96590    0 1288    5.87357   11.96590   104%     -   40s
     0     0   11.62734    0 1369    5.87357   11.62734  98.0%     -   48s
     0     0   11.61711    0 1506    5.87357   11.61711  97.8%     -   49s
     0     0   11.61668    0 1386    5.87357   11.61668  97.8%     -   49s
     0     0   11.61668    0 1409    5.87357   11.61668  97.8%     -   49s
     0     0   11.61668    0 1418    5.87357   11.61668  97.8%     -   50s
H    0     0                       5.9526369   11.61652  95.1%     -   50s
H    0     0                       5.9839249   11.61652  94.1%     -   50s
H    0     0                       6.3038025   11.61652  84.3%     -   50s
H    0     0                       6.3785355   11.61652  82.1%     -   50s
H    0     0                       6.3902983   11.61652  81.8%     -   50s
H    0     0                       6.4368146   11.61652  80.5%     -   50s
H    0     0                       6.5119078   11.61652  78.4%     -   51s
H    0     0                       6.5476708   11.61652  77.4%     -   51s
H    0     0                       6.6698301   11.61652  74.2%     -   51s
     0     0   11.59739    0 1488    6.66983   11.59739  73.9%     -   53s
     0     0   11.59734    0 1411    6.66983   11.59734  73.9%     -   53s
     0     0   11.59292    0 1485    6.66983   11.59292  73.8%     -   53s
     0     0   11.59286    0 1508    6.66983   11.59286  73.8%     -   53s
     0     0   11.34484    0 1751    6.66983   11.34484  70.1%     -   61s
     0     0   11.34107    0 1670    6.66983   11.34107  70.0%     -   62s
     0     0   11.34067    0 1680    6.66983   11.34067  70.0%     -   63s
     0     0   11.34059    0 1708    6.66983   11.34059  70.0%     -   63s
     0     0   11.34051    0 1603    6.66983   11.34051  70.0%     -   63s
     0     0   11.30620    0 1663    6.66983   11.30620  69.5%     -   65s
     0     0   11.30609    0 1594    6.66983   11.30609  69.5%     -   65s
     0     0   11.30354    0 1736    6.66983   11.30354  69.5%     -   65s
     0     0   11.30314    0 1716    6.66983   11.30314  69.5%     -   66s
     0     0   11.08272    0 1710    6.66983   11.08272  66.2%     -   73s
     0     0   11.07273    0 1628    6.66983   11.07273  66.0%     -   74s
     0     0   11.07222    0 1620    6.66983   11.07222  66.0%     -   75s
     0     0   11.07169    0 1644    6.66983   11.07169  66.0%     -   75s
H    0     0                       6.8745252   11.07169  61.1%     -   75s
H    0     0                       6.9194357   11.07169  60.0%     -   76s
H    0     0                       6.9570736   11.07169  59.1%     -   77s
     0     0   11.04281    0 1658    6.95707   11.04281  58.7%     -   80s
     0     0   11.04189    0 1590    6.95707   11.04189  58.7%     -   81s
     0     0   11.04189    0 1646    6.95707   11.04189  58.7%     -   81s
     0     0   11.03893    0 1545    6.95707   11.03893  58.7%     -   82s
     0     0   11.03848    0 1571    6.95707   11.03848  58.7%     -   82s
     0     0   10.86543    0 1852    6.95707   10.86543  56.2%     -   89s
     0     0   10.85762    0 1785    6.95707   10.85762  56.1%     -   92s
     0     0   10.85590    0 1844    6.95707   10.85590  56.0%     -   92s
     0     0   10.85590    0 1815    6.95707   10.85590  56.0%     -   92s
     0     0   10.83444    0 1805    6.95707   10.83444  55.7%     -   95s
     0     0   10.83400    0 1794    6.95707   10.83400  55.7%     -   95s
     0     0   10.83400    0 1766    6.95707   10.83400  55.7%     -   95s
     0     0   10.82998    0 1776    6.95707   10.82998  55.7%     -   96s
     0     0   10.82992    0 1742    6.95707   10.82992  55.7%     -   96s
     0     0   10.82875    0 1706    6.95707   10.82875  55.7%     -   97s
     0     0   10.82874    0 1694    6.95707   10.82874  55.7%     -   97s
     0     0   10.82808    0 1747    6.95707   10.82808  55.6%     -   97s
     0     0   10.64607    0 1726    6.95707   10.64607  53.0%     -  106s
     0     0   10.64316    0 1839    6.95707   10.64316  53.0%     -  107s
     0     0   10.64316    0 1816    6.95707   10.64316  53.0%     -  107s
H    0     0                       7.0317326   10.64316  51.4%     -  108s
H    0     0                       7.0922321   10.64316  50.1%     -  108s
H    0     0                       7.2548806   10.64316  46.7%     -  108s
H    0     0                       7.2645468   10.64316  46.5%     -  109s
     0     0   10.62227    0 1676    7.26455   10.62227  46.2%     -  112s
     0     0   10.62165    0 1640    7.26455   10.62165  46.2%     -  112s
     0     0   10.61689    0 1674    7.26455   10.61689  46.1%     -  113s
     0     0   10.61688    0 1749    7.26455   10.61688  46.1%     -  113s
     0     0   10.61636    0 1720    7.26455   10.61636  46.1%     -  114s
     0     0   10.61636    0 1751    7.26455   10.61636  46.1%     -  114s
     0     0   10.43928    0 1618    7.26455   10.43928  43.7%     -  122s
     0     0   10.43923    0 1551    7.26455   10.43923  43.7%     -  123s
H    0     0                       7.2927604   10.43923  43.1%     -  123s
     0     0   10.41145    0 1681    7.29276   10.41145  42.8%     -  126s
     0     0   10.41141    0 1768    7.29276   10.41141  42.8%     -  126s
     0     0   10.41141    0 1756    7.29276   10.41141  42.8%     -  126s
     0     0   10.40583    0 1539    7.29276   10.40583  42.7%     -  127s
     0     0   10.40581    0 1545    7.29276   10.40581  42.7%     -  127s
     0     0   10.40577    0 1556    7.29276   10.40577  42.7%     -  128s
     0     0   10.40576    0 1531    7.29276   10.40576  42.7%     -  128s
     0     0   10.40576    0 1564    7.29276   10.40576  42.7%     -  128s
     0     0   10.40568    0 1497    7.29276   10.40568  42.7%     -  128s
     0     0   10.40568    0 1525    7.29276   10.40568  42.7%     -  128s
     0     0   10.24880    0 1875    7.29276   10.24880  40.5%     -  135s
     0     0   10.24615    0 1830    7.29276   10.24615  40.5%     -  137s
     0     0   10.24555    0 1859    7.29276   10.24555  40.5%     -  138s
H    0     0                       7.3446286   10.24530  39.5%     -  139s
H    0     0                       7.3659998   10.24530  39.1%     -  140s
H    0     0                       7.4363046   10.24530  37.8%     -  140s
     0     0   10.22620    0 1780    7.43630   10.22620  37.5%     -  144s
     0     0   10.22544    0 1800    7.43630   10.22544  37.5%     -  145s
     0     0   10.22508    0 1794    7.43630   10.22508  37.5%     -  145s
     0     0   10.22101    0 1846    7.43630   10.22101  37.4%     -  146s
     0     0   10.22099    0 1791    7.43630   10.22099  37.4%     -  146s
     0     0   10.22099    0 1774    7.43630   10.22099  37.4%     -  146s
     0     0   10.22070    0 1800    7.43630   10.22070  37.4%     -  146s
     0     0   10.07789    0 1744    7.43630   10.07789  35.5%     -  155s
     0     0   10.06989    0 1767    7.43630   10.06989  35.4%     -  157s
     0     0   10.06978    0 1715    7.43630   10.06978  35.4%     -  158s
     0     0   10.06955    0 1716    7.43630   10.06955  35.4%     -  158s
     0     0   10.06955    0 1671    7.43630   10.06955  35.4%     -  158s
H    0     0                       7.4406068   10.06955  35.3%     -  159s
     0     0   10.05022    0 1831    7.44061   10.05022  35.1%     -  162s
     0     0   10.05022    0 1856    7.44061   10.05022  35.1%     -  162s
     0     0   10.05022    0 1834    7.44061   10.05022  35.1%     -  162s
     0     0   10.04473    0 1715    7.44061   10.04473  35.0%     -  163s
     0     0   10.04473    0 1715    7.44061   10.04473  35.0%     -  163s
     0     0   10.04273    0 1596    7.44061   10.04273  35.0%     -  164s
     0     0   10.04224    0 1693    7.44061   10.04224  35.0%     -  165s
     0     0   10.04224    0 1691    7.44061   10.04224  35.0%     -  165s
     0     0   10.04176    0 1730    7.44061   10.04176  35.0%     -  165s
     0     0   10.04173    0 1752    7.44061   10.04173  35.0%     -  166s
     0     0   10.04173    0 1751    7.44061   10.04173  35.0%     -  166s
     0     0    9.85100    0 1898    7.44061    9.85100  32.4%     -  179s
     0     0    9.84620    0 1875    7.44061    9.84620  32.3%     -  181s
     0     0    9.84586    0 1791    7.44061    9.84586  32.3%     -  182s
H    0     0                       7.4927898    9.84586  31.4%     -  186s
H    0     0                       7.5023721    9.84586  31.2%     -  187s
     0     0    9.81029    0 1867    7.50237    9.81029  30.8%     -  191s
     0     0    9.80674    0 1875    7.50237    9.80674  30.7%     -  192s
     0     0    9.80674    0 1867    7.50237    9.80674  30.7%     -  192s
     0     0    9.80613    0 1806    7.50237    9.80613  30.7%     -  193s
     0     0    9.68193    0 1720    7.50237    9.68193  29.1%     -  201s
     0     0    9.68149    0 1764    7.50237    9.68149  29.0%     -  202s
     0     0    9.68149    0 1683    7.50237    9.68149  29.0%     -  202s
     0     0    9.65376    0 1728    7.50237    9.65376  28.7%     -  205s
     0     0    9.64796    0 1752    7.50237    9.64796  28.6%     -  206s
     0     0    9.64759    0 1767    7.50237    9.64759  28.6%     -  206s
     0     0    9.64759    0 1733    7.50237    9.64759  28.6%     -  206s
     0     0    9.53083    0 1730    7.50237    9.53083  27.0%     -  214s
     0     0    9.53049    0 1770    7.50237    9.53049  27.0%     -  214s
     0     0    9.53049    0 1741    7.50237    9.53049  27.0%     -  214s
H    0     0                       7.5158615    9.53049  26.8%     -  216s
H    0     0                       7.5422939    9.53049  26.4%     -  216s
H    0     0                       7.5430042    9.53049  26.3%     -  217s
H    0     0                       7.6071397    9.53049  25.3%     -  218s
H    0     0                       7.6662067    9.53049  24.3%     -  218s
     0     0    9.51322    0 1714    7.66621    9.51322  24.1%     -  220s
     0     0    9.51321    0 1712    7.66621    9.51321  24.1%     -  220s
     0     0    9.51252    0 1739    7.66621    9.51252  24.1%     -  221s
     0     0    9.37092    0 1781    7.66621    9.37092  22.2%     -  228s
     0     0    9.36405    0 1813    7.66621    9.36405  22.1%     -  234s
     0     0    9.36403    0 1753    7.66621    9.36403  22.1%     -  234s
H    0     0                       7.6929058    9.36403  21.7%     -  234s
     0     0    9.33684    0 1715    7.69291    9.33684  21.4%     -  237s
     0     0    9.33680    0 1710    7.69291    9.33680  21.4%     -  237s
     0     0    9.33003    0 1824    7.69291    9.33003  21.3%     -  239s
     0     0    9.33003    0 1738    7.69291    9.33003  21.3%     -  239s
     0     0    9.32885    0 1633    7.69291    9.32885  21.3%     -  240s
     0     0    9.22095    0 1840    7.69291    9.22095  19.9%     -  248s
     0     0    9.22091    0 1855    7.69291    9.22091  19.9%     -  248s
     0     0    9.20244    0 1849    7.69291    9.20244  19.6%     -  251s
     0     0    9.20226    0 1858    7.69291    9.20226  19.6%     -  251s
     0     0    9.19761    0 1844    7.69291    9.19761  19.6%     -  252s
     0     0    9.19761    0 1825    7.69291    9.19761  19.6%     -  252s
     0     0    9.19712    0 1871    7.69291    9.19712  19.6%     -  253s
     0     0    9.11089    0 1724    7.69291    9.11089  18.4%     -  263s
     0     0    9.11017    0 1629    7.69291    9.11017  18.4%     -  264s
     0     0    9.09173    0 1738    7.69291    9.09173  18.2%     -  267s
     0     0    9.09173    0 1686    7.69291    9.09173  18.2%     -  267s
     0     0    9.08532    0 1677    7.69291    9.08532  18.1%     -  269s
     0     0    9.08530    0 1706    7.69291    9.08530  18.1%     -  269s
     0     0    9.08465    0 1770    7.69291    9.08465  18.1%     -  270s
     0     0    8.98803    0 1846    7.69291    8.98803  16.8%     -  277s
     0     0    8.98599    0 1845    7.69291    8.98599  16.8%     -  279s
     0     0    8.97775    0 1697    7.69291    8.97775  16.7%     -  288s
     0     0    8.97752    0 1748    7.69291    8.97752  16.7%     -  288s
     0     0    8.97746    0 1747    7.69291    8.97746  16.7%     -  289s
     0     0    8.97740    0 1743    7.69291    8.97740  16.7%     -  289s
     0     0    8.97506    0 1794    7.69291    8.97506  16.7%     -  290s
     0     0    8.97502    0 1718    7.69291    8.97502  16.7%     -  291s
     0     0    8.91431    0 1696    7.69291    8.91431  15.9%     -  298s
     0     0    8.90246    0 1709    7.69291    8.90246  15.7%     -  302s
     0     0    8.90245    0 1680    7.69291    8.90245  15.7%     -  302s
     0     0    8.88976    0 1597    7.69291    8.88976  15.6%     -  305s
     0     0    8.88812    0 1641    7.69291    8.88812  15.5%     -  305s
     0     0    8.88811    0 1640    7.69291    8.88811  15.5%     -  305s
     0     0    8.83820    0 1737    7.69291    8.83820  14.9%     -  311s
     0     0    8.83572    0 1571    7.69291    8.83572  14.9%     -  313s
     0     0    8.82375    0 1700    7.69291    8.82375  14.7%     -  315s
     0     0    8.82375    0 1658    7.69291    8.82375  14.7%     -  315s
     0     0    8.81999    0 1513    7.69291    8.81999  14.7%     -  317s
     0     0    8.81999    0 1511    7.69291    8.81999  14.7%     -  317s
     0     0    8.81921    0 1518    7.69291    8.81921  14.6%     -  317s
     0     0    8.76430    0 1691    7.69291    8.76430  13.9%     -  324s
     0     0    8.76430    0 1687    7.69291    8.76430  13.9%     -  324s
     0     0    8.75488    0 1658    7.69291    8.75488  13.8%     -  327s
     0     0    8.75463    0 1620    7.69291    8.75463  13.8%     -  328s
     0     0    8.75460    0 1662    7.69291    8.75460  13.8%     -  328s
     0     0    8.75187    0 1754    7.69291    8.75187  13.8%     -  329s
     0     0    8.71150    0 1484    7.69291    8.71150  13.2%     -  335s
     0     0    8.70924    0 1521    7.69291    8.70924  13.2%     -  336s
     0     0    8.70924    0 1519    7.69291    8.70924  13.2%     -  336s
     0     0    8.70399    0 1517    7.69291    8.70399  13.1%     -  338s
     0     0    8.70399    0 1520    7.69291    8.70399  13.1%     -  338s
     0     0    8.70399    0 1489    7.69291    8.70399  13.1%     -  338s
     0     0    8.70399    0 1488    7.69291    8.70399  13.1%     -  338s
     0     0    8.70390    0 1505    7.69291    8.70390  13.1%     -  338s
     0     0    8.70372    0 1571    7.69291    8.70372  13.1%     -  338s
     0     0    8.66811    0 1763    7.69291    8.66811  12.7%     -  343s
     0     0    8.66802    0 1720    7.69291    8.66802  12.7%     -  343s
     0     0    8.66795    0 1627    7.69291    8.66795  12.7%     -  344s
     0     0    8.65853    0 1718    7.69291    8.65853  12.6%     -  347s
     0     0    8.65714    0 1639    7.69291    8.65714  12.5%     -  348s
     0     0    8.62130    0 1444    7.69291    8.62130  12.1%     -  353s
     0     0    8.62129    0 1443    7.69291    8.62129  12.1%     -  353s
H    0     0                       7.8344066    8.62129  10.0%     -  362s
H    0     0                       7.8506246    8.62129  9.82%     -  363s
     0     0    8.61384    0 1551    7.85062    8.61384  9.72%     -  366s
     0     0    8.61347    0 1536    7.85062    8.61347  9.72%     -  368s
     0     0    8.61347    0 1534    7.85062    8.61347  9.72%     -  368s
     0     0    8.61301    0 1505    7.85062    8.61301  9.71%     -  368s
     0     0    8.61301    0 1503    7.85062    8.61301  9.71%     -  368s
     0     0    8.59328    0 1691    7.85062    8.59328  9.46%     -  374s
     0     0    8.59328    0 1732    7.85062    8.59328  9.46%     -  374s
     0     0    8.59325    0 1675    7.85062    8.59325  9.46%     -  374s
     0     0    8.59320    0 1652    7.85062    8.59320  9.46%     -  374s
     0     0    8.59320    0 1640    7.85062    8.59320  9.46%     -  375s
     0     2    8.59320    0 1637    7.85062    8.59320  9.46%     -  392s
     3     5    8.59219    3 1568    7.85062    8.59320  9.46%  1135  396s
     8    10    8.59013    8 1703    7.85062    8.59320  9.46%  1483  400s
    17    19    8.57936   16 1280    7.85062    8.59320  9.46%  2084  408s
    21    23    8.58638   20 1619    7.85062    8.59320  9.46%  1879  410s
H   26    26                       7.8506246    8.59320  9.46%  1683  414s
    26    28    8.58598   25 1589    7.85062    8.59320  9.46%  1743  418s
    30    32    8.53741   28 1458    7.85062    8.59320  9.46%  1736  420s
    43    45    8.58276   41 1499    7.85062    8.59320  9.46%  1426  425s
    60    62    8.57886   58 1445    7.85062    8.59320  9.46%  1203  430s
H   73    73                       7.8545702    8.59320  9.40%  1101  434s
    73    75    8.57643   70 1378    7.85457    8.59320  9.40%  1109  443s
    78    80    8.57525   74 1300    7.85457    8.59320  9.40%  1097  445s
    90    92    8.56777   84 1146    7.85457    8.59320  9.40%  1090  450s
    99   101    8.56425   92 1262    7.85457    8.59320  9.40%  1145  456s
   119   121    8.56108  112 1264    7.85457    8.59320  9.40%  1040  460s
   130   132    8.54714  122 1194    7.85457    8.59320  9.40%  1076  465s
   135   137    8.54096  125 1156    7.85457    8.59320  9.40%  1159  470s
   161   163    8.54215  151 1150    7.85457    8.59320  9.40%  1041  475s
   182   184    8.53109  170 1090    7.85457    8.59320  9.40%   986  480s
   191   193    8.53064  178 1226    7.85457    8.59320  9.40%   968  485s
   217   219    8.52544  203 1198    7.85457    8.59320  9.40%   917  490s
   243   245    8.46329  228 1126    7.85457    8.59320  9.40%   876  496s
   265   267    8.50142  250 1223    7.85457    8.59320  9.40%   844  500s
   305   307    8.49520  290 1322    7.85457    8.59320  9.40%   769  505s
   339   341    8.48387  324 1261    7.85457    8.59320  9.40%   734  510s
   361   363    8.47965  346 1340    7.85457    8.59320  9.40%   716  515s
   394   396    8.29059  377 1216    7.85457    8.59320  9.40%   692  521s
   412   414    8.45832  394 1378    7.85457    8.59320  9.40%   686  525s
   453   455    8.46204  435 1281    7.85457    8.59320  9.40%   644  530s
   470   472    8.46078  451 1241    7.85457    8.59320  9.40%   628  535s
   486   488    8.45616  466 1205    7.85457    8.59320  9.40%   636  540s
   534   536    8.45212  514 1223    7.85457    8.59320  9.40%   595  545s
   568   570    8.44439  548 1267    7.85457    8.59320  9.40%   581  550s
   600   602    8.41366  579 1197    7.85457    8.59320  9.40%   571  555s
   610   612    8.43305  589 1502    7.85457    8.59320  9.40%   565  563s
   623   625    8.43121  602 1395    7.85457    8.59320  9.40%   560  565s
   655   657    8.42599  633 1214    7.85457    8.59320  9.40%   551  570s
   682   684    8.42126  659 1347    7.85457    8.59320  9.40%   547  575s
   721   723    8.41245  698 1340    7.85457    8.59320  9.40%   532  580s
   752   754    8.36410  728 1505    7.85457    8.59320  9.40%   526  585s
   793   795    8.40360  769 1278    7.85457    8.59320  9.40%   510  590s
   832   834    8.39646  808 1332    7.85457    8.59320  9.40%   497  595s
   868   870    8.39150  844 1378    7.85457    8.59320  9.40%   489  600s
   909   911    8.38724  885 1518    7.85457    8.59320  9.40%   476  605s
   946   948    8.38442  922 1369    7.85457    8.59320  9.40%   467  610s
  1005  1007    8.37758  981 1313    7.85457    8.59320  9.40%   448  615s
  1045  1047    8.36974 1021 1206    7.85457    8.59320  9.40%   440  620s
  1075  1077    8.36550 1050 1167    7.85457    8.59320  9.40%   437  625s
  1117  1119    8.35757 1091 1098    7.85457    8.59320  9.40%   433  630s
  1133  1135    8.35587 1107 1070    7.85457    8.59320  9.40%   432  643s
  1140  1142    8.35352 1113 1017    7.85457    8.59320  9.40%   434  645s
  1176  1178    8.34453 1148 1081    7.85457    8.59320  9.40%   431  650s
  1218  1220    8.33154 1189  984    7.85457    8.59320  9.40%   427  655s
  1260  1262    8.31706 1229  991    7.85457    8.59320  9.40%   423  660s
  1304  1306    8.31139 1273  865    7.85457    8.59320  9.40%   419  665s
  1349  1351    8.30142 1316  866    7.85457    8.59320  9.40%   414  670s
  1408  1410    8.29176 1375  950    7.85457    8.59320  9.40%   403  675s
  1479  1481    8.27847 1446 1123    7.85457    8.59320  9.40%   391  680s
  1528  1530    8.27107 1495  864    7.85457    8.59320  9.40%   386  685s
  1593  1595    8.26678 1560 1085    7.85457    8.59320  9.40%   375  690s
  1666  1668    8.26349 1633 1016    7.85457    8.59320  9.40%   365  695s
  1730  1732    8.26013 1697 1203    7.85457    8.59320  9.40%   357  700s
  1796  1798    8.25728 1763 1185    7.85457    8.59320  9.40%   349  705s
  1860  1862    8.25332 1825  943    7.85457    8.59320  9.40%   342  710s
  1939  1941    8.24614 1904  884    7.85457    8.59320  9.40%   333  715s
  1994  1996    8.23790 1959  906    7.85457    8.59320  9.40%   328  720s
  2070  2072    8.22891 2035 1022    7.85457    8.59320  9.40%   319  725s
  2153  2155    8.19861 2117  860    7.85457    8.59320  9.40%   312  730s
  2233  2235    8.17962 2197 1094    7.85457    8.59320  9.40%   304  735s
  2287  2289    8.11909 2247  912    7.85457    8.59320  9.40%   302  740s
  2364  2366    8.12576 2320  579    7.85457    8.59320  9.40%   298  745s
  2460  2462    8.09218 2415  789    7.85457    8.59320  9.40%   289  750s
  2551  2552    8.21368 2089 1640    7.85457    8.59320  9.40%   281  790s
  2553  2553    8.30602  116  893    7.85457    8.59320  9.40%   280  796s
  2554  2554    8.24716 1887 1390    7.85457    8.59320  9.40%   280  801s
  2555  2555    8.38391  746 1538    7.85457    8.59320  9.40%   280  809s
  2556  2555    8.36486 1061 1772    7.85457    8.59320  9.40%   280  823s
  2557  2556    8.37716  584 1860    7.85457    8.59320  9.40%   280  837s
  2558  2557    8.29288 1350 1912    7.85457    8.59320  9.40%   280  852s
  2559  2557    8.28396 1440 2143    7.85457    8.59320  9.40%   280  867s
  2560  2558    8.23482 1201 1734    7.85457    8.59320  9.40%   280  881s
  2561  2559    8.42019  663 2001    7.85457    8.59320  9.40%   280  897s
  2562  2559    8.10404 2361 1788    7.85457    8.59320  9.40%   279  910s
  2563  2560    8.49742  277 1937    7.85457    8.59320  9.40%   279  920s
  2564  2561    8.22878 2038 1657    7.85457    8.59320  9.40%   279  938s
  2565  2561    8.09364 2401 1499    7.85457    8.59320  9.40%   279  949s
  2566  2562    8.24574 1913 1606    7.85457    8.50759  8.31%   279  960s
  2567  2563    8.23744 1972 1562    7.85457    8.43413  7.38%   279  968s
  2568  2563    8.38816   96 1406    7.85457    8.38816  6.79%   279  981s
  2569  2564    8.35524  629 1302    7.85457    8.35524  6.37%   279  988s
  2570  2565    8.32400  340 1566    7.85457    8.32400  5.98%   279  997s
  2571  2565    8.16171 2246 1469    7.85457    8.29587  5.62%   278 1004s
  2572  2566    8.26245  598 1441    7.85457    8.26245  5.19%   278 1017s
  2573  2567    8.24553 1087 1199    7.85457    8.24553  4.98%   278 1021s
  2574  2567    8.22060 2012 1139    7.85457    8.22060  4.66%   278 1028s
  2575  2568    8.19792  720 1338    7.85457    8.19792  4.37%   278 1033s
  2576  2569    8.17930 1926 1361    7.85457    8.17930  4.13%   278 1039s
  2577  2569    8.13701 2292 1356    7.85457    8.16335  3.93%   278 1044s
  2578  2570    8.15545  443 1421    7.85457    8.15545  3.83%   278 1050s
  2579  2571    8.14799 1947 1265    7.85457    8.14799  3.74%   278 1055s
  2580  2571    8.13472  288 1373    7.85457    8.13472  3.57%   277 1061s
  2581  2572    8.12479  695 1240    7.85457    8.12479  3.44%   277 1065s
  2582  2573    8.10973  792 1391    7.85457    8.10973  3.25%   277 1074s
  2583  2573    8.09982 1996 1100    7.85457    8.09982  3.12%   277 1079s
  2584  2574    8.07800 1232 1241    7.85457    8.07800  2.84%   277 1088s
  2585  2575    8.06967    3 1075    7.85457    8.06967  2.74%   277 1093s
H 2585  2445                       7.8713697    8.04707  2.23%   277 1099s
  2587  2446    8.03435 1894  976    7.87137    8.03435  2.07%   277 1104s
H 2587  2323                       7.9029824    8.02191  1.50%   277 1116s
H 2587  2206                       7.9109952    8.02191  1.40%   277 1117s
H 2587  2096                       7.9142884    8.02191  1.36%   277 1117s
H 2587  1990                       7.9202598    8.02191  1.28%   277 1118s
H 2587  1890                       7.9230875    8.02191  1.25%   277 1118s
  2589  1891    8.01324  681  936    7.92309    8.01324  1.14%   277 1122s
  2590  1892    8.00214  532 1120    7.92309    8.00214  1.00%   276 1129s
  2591  1893    7.99417 1138  930    7.92309    7.99417  0.90%   276 1132s
  2594  1896    7.98608  688 1640    7.92309    7.98608  0.80%   573 1136s
  2596  1897    7.98608 1384 1146    7.92309    7.98608  0.80%   572 1140s
  2599  1901    7.98608  909 1640    7.92309    7.98608  0.80%   592 1147s
  2601  1902    7.98608 2137 1159    7.92309    7.98608  0.80%   592 1152s
  2602  1903    7.98608 2194 1468    7.92309    7.98608  0.80%   592 1155s
  2604  1904    7.98608 2027 1513    7.92309    7.98608  0.80%   591 1161s
  2609  1908    7.98608 2439 1688    7.92309    7.98608  0.80%   590 1167s
  2612  1910    7.98608 1724 1810    7.92309    7.98608  0.80%   589 1170s
  2614  1911    7.98608  411 1526    7.92309    7.98608  0.80%   589 1175s
  2618  1914    7.98608  914 1712    7.92309    7.98608  0.80%   588 1180s
  2620  1915    7.98608 2462 1577    7.92309    7.98608  0.80%   588 1186s
  2625  1918    7.98608 2283 1669    7.92309    7.98608  0.80%   586 1194s
  2626  1919    7.98608 1772 1552    7.92309    7.98608  0.80%   586 1197s
  2629  1921    7.98608  139 1611    7.92309    7.98608  0.80%   586 1200s
  2630  1922    7.98608 1835 1686    7.92309    7.98608  0.80%   585 1205s
  2635  1925    7.98608 1744 1767    7.92309    7.98608  0.80%   584 1214s
  2636  1926    7.98608  803 1656    7.92309    7.98608  0.80%   584 1217s
  2639  1928    7.98608 1519 1527    7.92309    7.98608  0.80%   583 1220s
  2640  1928    7.98608 2302 1364    7.92309    7.98608  0.80%   583 1225s
  2644  1931    7.98608 2305 1311    7.92309    7.98608  0.80%   582 1231s
H 2644  1833                       7.9439843    7.98608  0.53%   582 1237s
  2648  1836    7.98608 1528 1187    7.94398    7.98608  0.53%   581 1240s
  2650  1837    7.98608 1666 1321    7.94398    7.98608  0.53%   581 1245s
H 2653  1746                       7.9479850    7.98608  0.48%   580 1251s
H 2657  1661                       7.9562355    7.98608  0.38%   579 1257s
  2661  1663    7.98608  663 1345    7.95624    7.98608  0.38%   579 1260s
  2664  1665    7.98608 2038 1044    7.95624    7.98608  0.38%   578 1265s
  2668  1669    7.98608   96 1640    7.95624    7.98608  0.38%   714 1270s
  2670  1670    7.98608  340 1442    7.95624    7.98608  0.38%   714 1275s
  2674  1673    7.98608 2012 1255    7.95624    7.98608  0.38%   713 1281s
  2678  1676    7.98608  443 1003    7.95624    7.98608  0.38%   712 1285s
  2684  1681    7.98608 1232 1640    7.95624    7.98608  0.38%   745 1290s
  2691  1686    7.98608 1138 1125    7.95624    7.98608  0.38%   743 1295s

Cutting planes:
  Learned: 35
  Gomory: 11
  Cover: 12
  Implied bound: 590
  Projected implied bound: 7
  Clique: 22
  MIR: 68
  Mixing: 1
  Flow cover: 298
  GUB cover: 22
  Zero half: 1
  RLT: 268
  Relax-and-lift: 246

Explored 2698 nodes (2995180 simplex iterations) in 1297.90 seconds (2946.44 work units)
Thread count was 1 (of 11 available processors)

Solution count 10: 7.95624 7.94798 7.94398 ... 7.85457

Optimal solution found (tolerance 1.00e-04)
Best objective 7.956235460087e+00, best bound 7.956235460087e+00, gap 0.0000%
